(set-info :smt-lib-version 2.6)
(set-info :category "crafted")
(set-logic QF_FF)
(define-sort FF0 () (_ FiniteField 52435875175126190479447740508185965837690552500527637822603658699938581184513))
(declare-fun b () Bool)
(declare-fun f () Bool)
(declare-fun d () Bool)
(declare-fun e () Bool)
(declare-fun c () Bool)
(declare-fun a () Bool)
(declare-fun return_n3 () FF0)
(declare-fun mul_n70 () FF0)
(declare-fun mul_n73 () FF0)
(declare-fun mul_n44 () FF0)
(declare-fun is_zero_n76 () FF0)
(declare-fun mul_n47 () FF0)
(declare-fun mul_n50 () FF0)
(declare-fun mul_n56 () FF0)
(declare-fun is_zero_n36 () FF0)
(declare-fun mul_n68 () FF0)
(declare-fun mul_n71 () FF0)
(declare-fun mul_n45 () FF0)
(declare-fun mul_n77 () FF0)
(declare-fun mul_n57 () FF0)
(declare-fun mul_n63 () FF0)
(declare-fun mul_n69 () FF0)
(declare-fun mul_n55 () FF0)
(declare-fun mul_n67 () FF0)
(declare-fun a_n6 () FF0)
(declare-fun mul_n64 () FF0)
(declare-fun is_zero_inv_n78 () FF0)
(declare-fun mul_n25 () FF0)
(declare-fun mul_n74 () FF0)
(declare-fun mul_n66 () FF0)
(declare-fun is_zero_n42 () FF0)
(declare-fun is_zero_n32 () FF0)
(declare-fun is_zero_inv_n75 () FF0)
(declare-fun mul_n72 () FF0)
(declare-fun mul_n53 () FF0)
(declare-fun mul_n48 () FF0)
(declare-fun mul_n27 () FF0)
(declare-fun mul_n60 () FF0)
(declare-fun b_n4 () FF0)
(declare-fun mul_n8 () FF0)
(declare-fun mul_n24 () FF0)
(declare-fun mul_n65 () FF0)
(declare-fun mul_n17 () FF0)
(declare-fun mul_n18 () FF0)
(declare-fun f_n5 () FF0)
(declare-fun is_zero_n59 () FF0)
(declare-fun mul_n62 () FF0)
(declare-fun d_n1 () FF0)
(declare-fun mul_n28 () FF0)
(declare-fun mul_n7 () FF0)
(declare-fun mul_n16 () FF0)
(declare-fun is_zero_n38 () FF0)
(declare-fun c_n2 () FF0)
(declare-fun mul_n33 () FF0)
(declare-fun is_zero_n20 () FF0)
(declare-fun mul_n26 () FF0)
(declare-fun e_n0 () FF0)
(declare-fun is_zero_inv_n58 () FF0)
(declare-fun mul_n51 () FF0)
(declare-fun mul_n21 () FF0)
(declare-fun mul_n54 () FF0)
(declare-fun is_zero_n40 () FF0)
(declare-fun mul_n52 () FF0)
(declare-fun mul_n30 () FF0)
(declare-fun mul_n49 () FF0)
(declare-fun mul_n9 () FF0)
(declare-fun mul_n34 () FF0)
(declare-fun mul_n46 () FF0)
(declare-fun mul_n14 () FF0)
(declare-fun is_zero_n13 () FF0)
(declare-fun is_zero_n11 () FF0)
(declare-fun mul_n43 () FF0)
(declare-fun is_zero_n23 () FF0)
(declare-fun is_zero_inv_n41 () FF0)
(declare-fun is_zero_inv_n39 () FF0)
(declare-fun is_zero_inv_n37 () FF0)
(declare-fun is_zero_inv_n35 () FF0)
(declare-fun is_zero_inv_n31 () FF0)
(declare-fun mul_n29 () FF0)
(declare-fun is_zero_inv_n22 () FF0)
(declare-fun is_zero_inv_n19 () FF0)
(declare-fun mul_n15 () FF0)
(declare-fun is_zero_inv_n12 () FF0)
(declare-fun is_zero_inv_n10 () FF0)
(assert 
  (let ((let0 b))
  (let ((let1 f))
  (let ((let2 d))
  (let ((let3 e))
  (let ((let4 c))
  (let ((let5 (ite let4 let3 let2)))
  (let ((let6 (ite let5 let1 let0)))
  (let ((let7 a))
  (let ((let8 (ite let7 let2 let0)))
  (let ((let9 (or let1 let8 let3 let7)))
  (let ((let10 (and let8 let5 let9 let6 let9 let7 let9 let4)))
  (let ((let11 (ite let10 let3 let10)))
  (let ((let12 (not let1)))
  (let ((let13 (or let12 let11 let6)))
  (let ((let14 (=> let6 let11)))
  (let ((let15 (= let12 let14)))
  (let ((let16 (not let2)))
  (let ((let17 (or let16 let16 let15 let5 let14)))
  (let ((let18 (ite let0 let12 let13)))
  (let ((let19 (and let18 let17 let10 let13)))
  (let ((let20 (or let14 let19)))
  (let ((let21 (and let20 let13)))
  (let ((let22 (and let10 let20)))
  (let ((let23 (=> let12 let17)))
  (let ((let24 (= let5 let23)))
  (let ((let25 (=> let19 let24)))
  (let ((let26 (ite let25 let22 let21)))
  (let ((let27 (not let7)))
  (let ((let28 (and let18 let4 let2 let27 let15)))
  (let ((let29 (= let28 let17)))
  (let ((let30 (= let8 let29)))
  (let ((let31 (or let18 let27 let11 let8)))
  (let ((let32 (not let31)))
  (let ((let33 (or let28 let31 let13 let14 let27 let3)))
  (let ((let34 (and let33 let33 let16 let9 let32 let15 let32)))
  (let ((let35 (or let24 let34 let17 let30)))
  (let ((let36 (and let19 let33 let32)))
  (let ((let37 (not let36)))
  (let ((let38 (=> let9 let11)))
  (let ((let39 (and let38 let37 let35)))
  (let ((let40 (=> let23 let30)))
  (let ((let41 (ite let40 let39 let26)))
  (let ((let42 (not let41)))
  (let ((let43 (=> let36 let42)))
  (let ((let44 (=> let1 let24)))
  (let ((let45 (or let6 let1)))
  (let ((let46 (or let45 let34)))
  (let ((let47 (not let28)))
  (let ((let48 (ite let34 let47 let46)))
  (let ((let49 (or let48 let44)))
  (let ((let50 (=> let18 let44)))
  (let ((let51 (= let7 let31)))
  (let ((let52 (and let4 let33 let22 let37 let3 let29)))
  (let ((let53 (ite let13 let32 let23)))
  (let ((let54 (ite let53 let52 let52)))
  (let ((let55 (and let24 let54 let51)))
  (let ((let56 (=> let54 let52)))
  (let ((let57 (and let15 let56 let20)))
  (let ((let58 (=> let57 let55)))
  (let ((let59 (ite let37 let40 let51)))
  (let ((let60 (= let56 let39)))
  (let ((let61 (= let60 let59)))
  (let ((let62 (and let6 let53)))
  (let ((let63 (=> let59 let40)))
  (let ((let64 (ite let46 let63 let36)))
  (let ((let65 (= let21 let59)))
  (let ((let66 (and let65 let36 let35 let47)))
  (let ((let67 (not let55)))
  (let ((let68 (ite let57 let65 let38)))
  (let ((let69 (and let68 let67 let66 let64 let62 let61 let58 let50 let49 let43)))
  (let ((let70 return_n3))
  (let ((let71 (as ff1 FF0)))
  (let ((let72 (= let71 let70)))
  (let ((let73 (= let72 let69)))
  (let ((let74 (as ff0 FF0)))
  (let ((let75 (= let74 let70)))
  (let ((let76 (or let72 let75)))
  (let ((let77 (and let76 let73)))
  (let ((let78 (as ff52435875175126190479447740508185965837690552500527637822603658699938581184512 FF0)))
  (let ((let79 (ff.mul let70 let78)))
  (let ((let80 (ff.add let79 let71)))
  (let ((let81 (as ff3 FF0)))
  (let ((let82 mul_n70))
  (let ((let83 (ff.mul let82 let78)))
  (let ((let84 mul_n73))
  (let ((let85 (ff.mul let84 let78)))
  (let ((let86 mul_n44))
  (let ((let87 (ff.mul let86 let78)))
  (let ((let88 is_zero_n76))
  (let ((let89 (ff.mul let88 let78)))
  (let ((let90 mul_n47))
  (let ((let91 (ff.mul let90 let78)))
  (let ((let92 mul_n50))
  (let ((let93 mul_n56))
  (let ((let94 is_zero_n36))
  (let ((let95 mul_n68))
  (let ((let96 mul_n71))
  (let ((let97 (ff.mul let96 let78)))
  (let ((let98 mul_n45))
  (let ((let99 mul_n77))
  (let ((let100 (ff.mul let99 let78)))
  (let ((let101 mul_n57))
  (let ((let102 mul_n63))
  (let ((let103 mul_n69))
  (let ((let104 mul_n55))
  (let ((let105 mul_n67))
  (let ((let106 a_n6))
  (let ((let107 (ff.mul let106 let78)))
  (let ((let108 mul_n64))
  (let ((let109 (ff.add let108 let107 let105 let104 let103 let102 let101 let100 let98 let97 let95 let94 let93 let92 let91 let89 let87 let85 let83 let81)))
  (let ((let110 is_zero_inv_n78))
  (let ((let111 (ff.mul let110 let109)))
  (let ((let112 (= let111 let80)))
  (let ((let113 (ff.mul let101 let78)))
  (let ((let114 (ff.mul let94 let78)))
  (let ((let115 mul_n25))
  (let ((let116 (ff.mul let115 let78)))
  (let ((let117 (ff.mul let95 let78)))
  (let ((let118 mul_n74))
  (let ((let119 (ff.add let106 let98 let118 let117 let116 let114 let113)))
  (let ((let120 mul_n66))
  (let ((let121 (ff.mul let120 let119)))
  (let ((let122 (= let121 let99)))
  (let ((let123 is_zero_n42))
  (let ((let124 (ff.mul let118 let78)))
  (let ((let125 is_zero_n32))
  (let ((let126 (ff.add let125 let124 let123 let94 let95 let87 let101 let115 let107 let71)))
  (let ((let127 (ff.mul let88 let126)))
  (let ((let128 (= let127 let74)))
  (let ((let129 (ff.add let89 let71)))
  (let ((let130 is_zero_inv_n75))
  (let ((let131 (ff.mul let130 let126)))
  (let ((let132 (= let131 let129)))
  (let ((let133 (ff.add let95 let94 let101 let107)))
  (let ((let134 (as ff2 FF0)))
  (let ((let135 (ff.mul let115 let134)))
  (let ((let136 (ff.mul let135 let133)))
  (let ((let137 (= let136 let118)))
  (let ((let138 mul_n72))
  (let ((let139 (ff.mul let138 let78)))
  (let ((let140 (ff.add let139 let87 let71)))
  (let ((let141 mul_n53))
  (let ((let142 (ff.mul let141 let78)))
  (let ((let143 (ff.add let142 let71)))
  (let ((let144 (ff.mul let143 let140)))
  (let ((let145 (= let144 let84)))
  (let ((let146 mul_n48))
  (let ((let147 (ff.mul let133 let146)))
  (let ((let148 (= let147 let138)))
  (let ((let149 mul_n27))
  (let ((let150 (ff.mul let149 let78)))
  (let ((let151 mul_n60))
  (let ((let152 (ff.add let151 let150 let71)))
  (let ((let153 b_n4))
  (let ((let154 mul_n8))
  (let ((let155 (ff.add let154 let153)))
  (let ((let156 (ff.mul let155 let152)))
  (let ((let157 (= let156 let96)))
  (let ((let158 (as ff52435875175126190479447740508185965837690552500527637822603658699938581184511 FF0)))
  (let ((let159 (ff.mul let90 let158)))
  (let ((let160 (ff.mul let103 let134)))
  (let ((let161 (ff.mul let108 let134)))
  (let ((let162 (ff.add let161 let160 let159)))
  (let ((let163 (ff.mul let162 let133)))
  (let ((let164 (= let163 let82)))
  (let ((let165 (ff.mul let108 let158)))
  (let ((let166 (ff.add let165 let134)))
  (let ((let167 (ff.mul let166 let90)))
  (let ((let168 (= let167 let103)))
  (let ((let169 (ff.mul let146 let78)))
  (let ((let170 (ff.add let169 let114 let113 let106 let71)))
  (let ((let171 (ff.add let87 let71)))
  (let ((let172 (ff.mul let171 let170)))
  (let ((let173 (= let172 let95)))
  (let ((let174 (ff.mul let102 let78)))
  (let ((let175 (ff.add let174 let71)))
  (let ((let176 (ff.mul let120 let175)))
  (let ((let177 (= let176 let105)))
  (let ((let178 mul_n24))
  (let ((let179 (ff.mul let178 let78)))
  (let ((let180 (ff.add let179 let71)))
  (let ((let181 mul_n65))
  (let ((let182 (ff.mul let181 let180)))
  (let ((let183 (= let182 let120)))
  (let ((let184 (ff.mul let108 let78)))
  (let ((let185 (ff.add let184 let71)))
  (let ((let186 mul_n17))
  (let ((let187 mul_n18))
  (let ((let188 f_n5))
  (let ((let189 (ff.add let188 let187 let186 let78)))
  (let ((let190 (ff.mul let189 let185)))
  (let ((let191 (= let190 let181)))
  (let ((let192 is_zero_n59))
  (let ((let193 (ff.mul let192 let78)))
  (let ((let194 (ff.add let193 let71)))
  (let ((let195 (ff.mul let192 let194)))
  (let ((let196 (= let195 let108)))
  (let ((let197 (ff.add let94 let101 let107)))
  (let ((let198 mul_n62))
  (let ((let199 (ff.mul let198 let197)))
  (let ((let200 (= let199 let102)))
  (let ((let201 d_n1))
  (let ((let202 (ff.mul let201 let78)))
  (let ((let203 mul_n28))
  (let ((let204 mul_n7))
  (let ((let205 (ff.mul let204 let78)))
  (let ((let206 (ff.add let205 let203 let202 let149)))
  (let ((let207 (ff.mul let206 let192)))
  (let ((let208 (= let207 let198)))
  (let ((let209 (ff.add let94 let149 let78)))
  (let ((let210 mul_n16))
  (let ((let211 (ff.mul let210 let78)))
  (let ((let212 (ff.add let211 let71)))
  (let ((let213 (ff.mul let212 let209)))
  (let ((let214 (= let213 let151)))
  (let ((let215 (as ff4 FF0)))
  (let ((let216 is_zero_n38))
  (let ((let217 c_n2))
  (let ((let218 (ff.mul let217 let78)))
  (let ((let219 mul_n33))
  (let ((let220 (ff.mul let219 let78)))
  (let ((let221 is_zero_n20))
  (let ((let222 (ff.mul let221 let78)))
  (let ((let223 mul_n26))
  (let ((let224 (ff.mul let223 let78)))
  (let ((let225 e_n0))
  (let ((let226 (ff.mul let225 let78)))
  (let ((let227 (ff.add let226 let125 let224 let222 let220 let218 let86 let216 let215)))
  (let ((let228 (ff.mul let192 let227)))
  (let ((let229 (= let228 let74)))
  (let ((let230 is_zero_inv_n58))
  (let ((let231 (ff.mul let230 let227)))
  (let ((let232 (= let231 let194)))
  (let ((let233 (ff.add let114 let71)))
  (let ((let234 (ff.mul let106 let134)))
  (let ((let235 (ff.mul let234 let233)))
  (let ((let236 (= let235 let101)))
  (let ((let237 mul_n51))
  (let ((let238 mul_n21))
  (let ((let239 (ff.add let211 let238 let71)))
  (let ((let240 (ff.mul let239 let237)))
  (let ((let241 (= let240 let93)))
  (let ((let242 mul_n54))
  (let ((let243 (ff.mul let242 let78)))
  (let ((let244 (ff.add let141 let243)))
  (let ((let245 (ff.mul let244 let237)))
  (let ((let246 (= let245 let104)))
  (let ((let247 (ff.mul let125 let78)))
  (let ((let248 (ff.add let247 let141)))
  (let ((let249 is_zero_n40))
  (let ((let250 (ff.mul let249 let248)))
  (let ((let251 (= let250 let242)))
  (let ((let252 (ff.mul let249 let78)))
  (let ((let253 (ff.add let252 let71)))
  (let ((let254 mul_n52))
  (let ((let255 (ff.mul let254 let253)))
  (let ((let256 (= let255 let141)))
  (let ((let257 (ff.mul let188 let78)))
  (let ((let258 (ff.add let257 let71)))
  (let ((let259 (ff.mul let153 let78)))
  (let ((let260 (ff.mul let154 let78)))
  (let ((let261 (ff.add let260 let259 let71)))
  (let ((let262 (ff.mul let261 let258)))
  (let ((let263 (= let262 let254)))
  (let ((let264 (ff.mul let203 let78)))
  (let ((let265 (ff.add let204 let264 let201 let150 let71)))
  (let ((let266 (ff.mul let188 let265)))
  (let ((let267 (= let266 let237)))
  (let ((let268 mul_n30))
  (let ((let269 mul_n49))
  (let ((let270 (ff.add let269 let115 let268)))
  (let ((let271 (ff.mul let86 let270)))
  (let ((let272 (= let271 let92)))
  (let ((let273 (ff.mul let268 let78)))
  (let ((let274 (ff.add let116 let273 let90)))
  (let ((let275 (ff.add let169 let71)))
  (let ((let276 (ff.mul let275 let274)))
  (let ((let277 (= let276 let269)))
  (let ((let278 mul_n9))
  (let ((let279 mul_n34))
  (let ((let280 (ff.mul let279 let78)))
  (let ((let281 (ff.add let247 let280 let153 let278 let219 let221)))
  (let ((let282 (ff.add let150 let71)))
  (let ((let283 (ff.mul let282 let281)))
  (let ((let284 (= let283 let146)))
  (let ((let285 (ff.mul let123 let78)))
  (let ((let286 (ff.add let285 let71)))
  (let ((let287 mul_n46))
  (let ((let288 (ff.mul let287 let286)))
  (let ((let289 (= let288 let90)))
  (let ((let290 (ff.mul let98 let78)))
  (let ((let291 (ff.add let290 let71)))
  (let ((let292 (ff.mul let291 let171)))
  (let ((let293 (= let292 let287)))
  (let ((let294 mul_n14))
  (let ((let295 (ff.mul let294 let78)))
  (let ((let296 is_zero_n13))
  (let ((let297 (ff.mul let296 let78)))
  (let ((let298 (ff.add let297 let295 let71)))
  (let ((let299 is_zero_n11))
  (let ((let300 (ff.mul let299 let78)))
  (let ((let301 (ff.add let300 let71)))
  (let ((let302 (ff.mul let301 let298)))
  (let ((let303 (= let302 let98)))
  (let ((let304 mul_n43))
  (let ((let305 (ff.mul let304 let94)))
  (let ((let306 (= let305 let86)))
  (let ((let307 (ff.mul let216 let78)))
  (let ((let308 (ff.add let307 let71)))
  (let ((let309 is_zero_n23))
  (let ((let310 (ff.mul let309 let308)))
  (let ((let311 (= let310 let304)))
  (let ((let312 (ff.mul let278 let78)))
  (let ((let313 (ff.mul let221 let158)))
  (let ((let314 (ff.add let125 let205 let313 let202 let259 let149 let249 let220 let279 let203 let312 let134)))
  (let ((let315 (ff.mul let123 let314)))
  (let ((let316 (= let315 let74)))
  (let ((let317 is_zero_inv_n41))
  (let ((let318 (ff.mul let317 let314)))
  (let ((let319 (= let318 let286)))
  (let ((let320 (ff.mul let216 let134)))
  (let ((let321 (ff.mul let187 let78)))
  (let ((let322 (ff.mul let186 let78)))
  (let ((let323 (ff.mul let94 let158)))
  (let ((let324 (ff.add let323 let322 let201 let299 let257 let321 let320 let215)))
  (let ((let325 (ff.mul let249 let324)))
  (let ((let326 (= let325 let74)))
  (let ((let327 is_zero_inv_n39))
  (let ((let328 (ff.mul let327 let324)))
  (let ((let329 (= let328 let253)))
  (let ((let330 (ff.add let125 let211 let225 let114 let322 let107 let215)))
  (let ((let331 (ff.mul let216 let330)))
  (let ((let332 (= let331 let74)))
  (let ((let333 is_zero_inv_n37))
  (let ((let334 (ff.mul let333 let330)))
  (let ((let335 (= let334 let308)))
  (let ((let336 (ff.add let211 let238 let296 let153 let278 let107 let294 let134)))
  (let ((let337 (ff.mul let94 let336)))
  (let ((let338 (= let337 let74)))
  (let ((let339 is_zero_inv_n35))
  (let ((let340 (ff.mul let339 let336)))
  (let ((let341 (= let340 let233)))
  (let ((let342 (ff.add let247 let219 let221)))
  (let ((let343 (ff.mul let278 let134)))
  (let ((let344 (ff.mul let153 let134)))
  (let ((let345 (ff.add let344 let343)))
  (let ((let346 (ff.mul let345 let342)))
  (let ((let347 (= let346 let279)))
  (let ((let348 (ff.add let222 let71)))
  (let ((let349 (ff.mul let125 let134)))
  (let ((let350 (ff.mul let349 let348)))
  (let ((let351 (= let350 let219)))
  (let ((let352 (ff.mul let238 let78)))
  (let ((let353 (ff.add let210 let202 let322 let352 let218 let257 let321 let106 let215)))
  (let ((let354 (ff.mul let125 let353)))
  (let ((let355 (= let354 let74)))
  (let ((let356 (ff.add let247 let71)))
  (let ((let357 is_zero_inv_n31))
  (let ((let358 (ff.mul let357 let353)))
  (let ((let359 (= let358 let356)))
  (let ((let360 (ff.add let116 let223)))
  (let ((let361 mul_n29))
  (let ((let362 (ff.mul let361 let78)))
  (let ((let363 (ff.add let362 let71)))
  (let ((let364 (ff.mul let363 let360)))
  (let ((let365 (= let364 let268)))
  (let ((let366 (ff.mul let309 let265)))
  (let ((let367 (= let366 let361)))
  (let ((let368 (ff.mul let204 let134)))
  (let ((let369 (ff.mul let201 let134)))
  (let ((let370 (ff.add let369 let368)))
  (let ((let371 (ff.mul let370 let282)))
  (let ((let372 (= let371 let203)))
  (let ((let373 (ff.mul let258 let221)))
  (let ((let374 (= let373 let149)))
  (let ((let375 (ff.mul let296 let180)))
  (let ((let376 (= let375 let223)))
  (let ((let377 (ff.mul let180 let212)))
  (let ((let378 (= let377 let115)))
  (let ((let379 (ff.mul let309 let78)))
  (let ((let380 (ff.add let379 let71)))
  (let ((let381 (ff.mul let186 let380)))
  (let ((let382 (= let381 let178)))
  (let ((let383 (ff.mul let210 let134)))
  (let ((let384 (ff.add let383 let352 let297 let221 let71)))
  (let ((let385 (ff.mul let309 let384)))
  (let ((let386 (= let385 let74)))
  (let ((let387 is_zero_inv_n22))
  (let ((let388 (ff.mul let387 let384)))
  (let ((let389 (= let388 let380)))
  (let ((let390 (ff.add let210 let257)))
  (let ((let391 (ff.mul let153 let390)))
  (let ((let392 (= let391 let238)))
  (let ((let393 (ff.add let188 let187 let204 let202 let134)))
  (let ((let394 (ff.mul let221 let393)))
  (let ((let395 (= let394 let74)))
  (let ((let396 is_zero_inv_n19))
  (let ((let397 (ff.mul let396 let393)))
  (let ((let398 (= let397 let348)))
  (let ((let399 (ff.add let322 let71)))
  (let ((let400 (ff.mul let188 let158)))
  (let ((let401 (ff.add let400 let134)))
  (let ((let402 (ff.mul let401 let399)))
  (let ((let403 (= let402 let187)))
  (let ((let404 (ff.mul let155 let298)))
  (let ((let405 (= let404 let186)))
  (let ((let406 mul_n15))
  (let ((let407 (ff.mul let406 let261)))
  (let ((let408 (= let407 let210)))
  (let ((let409 (ff.mul let188 let298)))
  (let ((let410 (= let409 let406)))
  (let ((let411 (ff.add let225 let297)))
  (let ((let412 (ff.mul let296 let411)))
  (let ((let413 (= let412 let294)))
  (let ((let414 (as ff5 FF0)))
  (let ((let415 (ff.mul let299 let81)))
  (let ((let416 (ff.mul let153 let158)))
  (let ((let417 (ff.add let205 let416 let202 let415 let260 let218 let312 let107 let414)))
  (let ((let418 (ff.mul let296 let417)))
  (let ((let419 (= let418 let74)))
  (let ((let420 (ff.add let297 let71)))
  (let ((let421 is_zero_inv_n12))
  (let ((let422 (ff.mul let421 let417)))
  (let ((let423 (= let422 let420)))
  (let ((let424 (ff.add let225 let188 let153 let278 let106)))
  (let ((let425 (ff.mul let299 let424)))
  (let ((let426 (= let425 let74)))
  (let ((let427 is_zero_inv_n10))
  (let ((let428 (ff.mul let427 let424)))
  (let ((let429 (= let428 let301)))
  (let ((let430 (ff.add let259 let201)))
  (let ((let431 (ff.mul let106 let430)))
  (let ((let432 (= let431 let278)))
  (let ((let433 (ff.add let259 let188)))
  (let ((let434 (ff.add let201 let204)))
  (let ((let435 (ff.mul let434 let433)))
  (let ((let436 (= let435 let154)))
  (let ((let437 (ff.add let225 let202)))
  (let ((let438 (ff.mul let217 let437)))
  (let ((let439 (= let438 let204)))
  (let ((let440 (and let439 let436 let432 let429 let426 let423 let419 let413 let410 let408 let405 let403 let398 let395 let392 let389 let386 let382 let378 let376 let374 let372 let367 let365 let359 let355 let351 let347 let341 let338 let335 let332 let329 let326 let319 let316 let311 let306 let303 let293 let289 let284 let277 let272 let267 let263 let256 let251 let246 let241 let236 let232 let229 let214 let208 let200 let196 let191 let183 let177 let173 let168 let164 let157 let148 let145 let137 let132 let128 let122 let112)))
  (let ((let441 (ite let4 let71 let74)))
  (let ((let442 (= let217 let441)))
  (let ((let443 (ite let2 let71 let74)))
  (let ((let444 (= let201 let443)))
  (let ((let445 (ite let0 let71 let74)))
  (let ((let446 (= let153 let445)))
  (let ((let447 (ite let1 let71 let74)))
  (let ((let448 (= let188 let447)))
  (let ((let449 (ite let3 let71 let74)))
  (let ((let450 (= let225 let449)))
  (let ((let451 (ite let7 let71 let74)))
  (let ((let452 (= let106 let451)))
  (let ((let453 (and let452 let450 let448 let446 let444 let442)))
  (let ((let454 (and let453 let440)))
  (let ((let455 (=> let454 let77)))
  (let ((let456 (not let455)))
  let456
)))))))))))))))))))))))))))))))))))))))))))))))))))))))))))))))))))))))))))))))))))))))))))))))))))))))))))))))))))))))))))))))))))))))))))))))))))))))))))))))))))))))))))))))))))))))))))))))))))))))))))))))))))))))))))))))))))))))))))))))))))))))))))))))))))))))))))))))))))))))))))))))))))))))))))))))))))))))))))))))))))))))))))))))))))))))))))))))))))))))))))))))))))))))))))))))))))))))))))))))))))))))))))))))))))))))))))))))))))))))))))))))))))))))))
)
(check-sat)
